 INCAR:
 POTCAR:   PAW_PBE Si 05Jan2001
 POTCAR:   PAW_PBE Si 05Jan2001
   VRHFIN =Si: s2p2

   TITEL  = PAW_PBE Si 05Jan2001
   POMASS =   28.085; ZVAL   =    4.000    mass and valenz
   ENMAX  =  245.345; ENMIN  =  184.009 eV
   QCUT   =   -4.246; QGAM   =    8.493    optimization parameters

   Description
     l     E      TYP  RCUT    TYP  RCUT
     0   .000     23  1.900
     0   .000     23  1.900
     1   .000     23  1.900
     1   .000     23  1.900
     2   .000      7  1.900

 PAW_PBE Si 05Jan2001                   :

 POSCAR:  my lattice
  positions in direct lattice

 ion  position               nearest neighbor table
   1  0.000  0.000  0.000-   5 2.35   6 2.35   7 2.35   8 2.35
   2  0.000  0.500  0.500-   5 2.35   6 2.35   7 2.35   8 2.35
   3  0.500  0.000  0.500-   5 2.35   6 2.35   7 2.35   8 2.35
   4  0.500  0.500  0.000-   5 2.35   6 2.35   7 2.35   8 2.35
   5  0.250  0.250  0.250-   1 2.35   2 2.35   3 2.35   4 2.35
   6  0.250  0.750  0.750-   1 2.35   2 2.35   3 2.35   4 2.35
   7  0.750  0.250  0.750-   1 2.35   2 2.35   3 2.35   4 2.35
   8  0.750  0.750  0.250-   1 2.35   2 2.35   3 2.35   4 2.35

  LATTYP: Found a simple cubic cell.
 ALAT       =     5.4200000000

  Lattice vectors:

 A1 = (   5.4200000000,   0.0000000000,   0.0000000000)
 A2 = (   0.0000000000,   5.4200000000,   0.0000000000)
 A3 = (   0.0000000000,   0.0000000000,   5.4200000000)
 Subroutine PRICEL returns following result:

  LATTYP: Found a face centered cubic cell.
 ALAT       =     5.4200000000

  Lattice vectors:

 A1 = (   2.7100000000,   2.7100000000,   0.0000000000)
 A2 = (   2.7100000000,   0.0000000000,  -2.7100000000)
 A3 = (   0.0000000000,   2.7100000000,  -2.7100000000)

   4 primitive cells build up your supercell.

Analysis of symmetry for initial positions (statically):

 Routine SETGRP: Setting up the symmetry group for a
 simple cubic supercell.

 Subroutine GETGRP returns: Found 48 space group operations
 (whereof 24 operations were pure point group operations)
 out of a pool of 48 trial point group operations.

The static configuration has the point symmetry T_d .
 The point group associated with its full space group is O_h .

Analysis of symmetry for dynamics (positions and initial velocities):

 Subroutine DYNSYM returns: Found 48 space group operations
 (whereof 24 operations were pure point group operations)
 out of a pool of 48 trial space group operations
 (whereof 24 operations were pure point group operations)
 and found also     4 'primitive' translations

The dynamic configuration has the point symmetry T_d .
 The point group associated with its full space group is O_h .

 KPOINTS: kpoints for bandstructure L-G-X-U K-G
  interpolating k-points between supplied coordinates
  k-points in reciprocal lattice

 I would recommend the setting:
   dimension x,y,z NGX =    21 NGY =   21 NGZ =   21
 SYSTEM =  diamond Si
 POSCAR =   my lattice

 Startparameter for this run:
   NWRITE =      2    write-flag & timer
   PREC   = medium    medium, high low
   ISTART =      0    job   : 0-new  1-cont  2-samecut
   ICHARG =      2    charge: 1-file 2-atom 10-const
   ISPIN  =      1    spin polarized calculation?
   LNONCOLLINEAR =      F non collinear calculations
   LSORBIT =      F    spin-orbit coupling
   INIWAV =      1    electr: 0-lowe 1-rand  2-diag
   LASPH  =      F    aspherical Exc in radial PAW
   METAGGA=      F    non-selfconsistent MetaGGA calc.

 Electronic Relaxation 1
   ENCUT  =  240.0 eV  17.64 Ry    4.20 a.u.   6.85  6.85  6.85*2*pi/ulx,y,z
   ENINI  =  240.0     initial cutoff
   ENAUG  =  322.1 eV  augmentation charge cutoff
   NELM   =     60;   NELMIN=  2; NELMDL= -5     # of ELM steps
   EDIFF  = 0.1E-03   stopping-criterion for ELM
   LREAL  =      F    real-space projection
   LCOMPAT=      F    compatible to vasp.4.4
   LREAL_COMPAT= F    compatible to vasp.4.5.1-3
   GGA_COMPAT  = T    GGA compatible to vasp.4.4-vasp.4.6
   LMAXPAW     = -100 max onsite density
   LMAXMIX     =    2 max onsite mixed and CHGCAR
   VOSKOWN=      0    Vosko Wilk Nusair interpolation
   ROPT   =    0.00000
 Ionic relaxation
   EDIFFG = 0.1E-02   stopping-criterion for IOM
   NSW    =      0    number of steps for IOM
   NBLOCK =      1;   KBLOCK =      1    inner block; outer block
   IBRION =     -1    ionic relax: 0-MD 1-quasi-New 2-CG
   NFREE  =      0    steps in history (QN), initial steepest desc. (CG)
   ISIF   =      2    stress and relaxation
   IWAVPR =      0    prediction:  0-non 1-charg 2-wave 3-comb
   ISYM   =      2    0-nonsym 1-usesym 2-fastsym
   LCORR  =      T    Harris-Foulkes like correction to forces

   POTIM  =   0.50    time-step for ionic-motion
   TEIN   =    0.0    initial temperature
   TEBEG  =    0.0;   TEEND  =   0.0 temperature during run
   SMASS  =  -3.00    Nose mass-parameter (am)
   estimated Nose-frequenzy (Omega)   =  0.10E-29 period in steps =****** mass=  -0.671E-27a.u.
   NPACO  =    256;   APACO  = 16.0  distance and # of slots for P.C.
   PSTRESS=    0.0 pullay stress

  Mass of Ions in am
   POMASS =  28.09
  Ionic Valenz
   ZVAL   =   4.00
  Atomic Wigner-Seitz radii
   NELECT =      32.0000    total number of electrons
   NUPDOWN=      -1.0000    fix difference up-down

 DOS related values:
   EMIN   =  10.00;   EMAX   =-10.00  energy-range for DOS
   ISMEAR =     0;   SIGMA  =   0.10  broadening in eV -4-tet -1-fermi 0-gaus

 Electronic relaxation 2 (details)
   IALGO  =     38    algorithm
   LDIAG  =      T    sub-space diagonalisation
   IMIX   =      4    mixing-type and parameters
     AMIX     =   0.40;   BMIX     =  1.00
     AMIX_MAG =   1.60;   BMIX_MAG =  1.00
     AMIN     =   0.10
     WC   =   100.;   INIMIX=   1;  MIXPRE=   1

 Intra band minimization:
   WEIMIN = 0.0000     energy-eigenvalue tresh-hold
   EBREAK =  0.12E-05  absolut break condition
   DEPER  =   0.30     relativ break condition

   TIME   =   0.10     timestep for ELM

  volume/ion in A,a.u.               =      19.90       134.31
  Fermi-wavevector in a.u.,eV,Ry     =   0.958942 12.511498  0.919569

 Second variation
   LSECVAR=     F    do a second variation

 Write flags
   LWAVE  =      T    write WAVECAR
   LCHARG =      T    write CHGCAR
   LVTOT  =      F    write LOCPOT, local potential
   LELF   =      F    write electronic localiz. function (ELF)
   LORBIT =     11    0 simple, 1 ext, 2 COOP (PROOUT)

 Dipole corrections
   IDIPOL =      0    1-x, 2-y, 3-z
   LDIPOL =      F    correct potential

 Static calculation
 charge density will be updated during run
 non-spin polarized calculation
 Variant of blocked Davidson
 Davidson routine will perform the subspace rotation
 performe sub-space diagonalisation
    after iterative eigenvector-optimisation
 modified Broyden-mixing scheme, WC =      100.0
 initial mixing is a Kerker type mixing with AMIX =  0.4000 and BMIX =      1.0000
 Hartree-type preconditioning will be used
 using additional bands            5
 reciprocal scheme for non local part
 use partial core corrections
 calculate Harris-corrections to forces
   (improved forces if not selfconsistent)
 use gradient corrections
 use of overlap-Matrix (Vanderbilt PP)
 Gauss-broadening in eV      SIGMA  =   0.10

  energy-cutoff  :      240.00
  volume of cell :      159.22
      direct lattice vectors                 reciprocal lattice vectors
     5.420000000  0.000000000  0.000000000     0.184501845  0.000000000  0.000000000
     0.000000000  5.420000000  0.000000000     0.000000000  0.184501845  0.000000000
     0.000000000  0.000000000  5.420000000     0.000000000  0.000000000  0.184501845

  length of vectors
     5.420000000  5.420000000  5.420000000     0.184501845  0.184501845  0.184501845

 k-points in units of 2pi/SCALE and weight: kpoints for bandstructure L-G-X-U K-G
   0.92250923  0.92250923  0.92250923       0.025
   0.82000820  0.82000820  0.82000820       0.025
   0.71750718  0.71750718  0.71750718       0.025
   0.61500615  0.61500615  0.61500615       0.025
   0.51250513  0.51250513  0.51250513       0.025
   0.41000410  0.41000410  0.41000410       0.025
   0.30750308  0.30750308  0.30750308       0.025
   0.20500205  0.20500205  0.20500205       0.025
   0.10250103  0.10250103  0.10250103       0.025
   0.00000000  0.00000000  0.00000000       0.025
   0.00000000  0.00000000  0.00000000       0.025
   0.00000000  0.10250103  0.10250103       0.025
   0.00000000  0.20500205  0.20500205       0.025
   0.00000000  0.30750308  0.30750308       0.025
   0.00000000  0.41000410  0.41000410       0.025
   0.00000000  0.51250513  0.51250513       0.025
   0.00000000  0.61500615  0.61500615       0.025
   0.00000000  0.71750718  0.71750718       0.025
   0.00000000  0.82000820  0.82000820       0.025
   0.00000000  0.92250923  0.92250923       0.025
   0.00000000  0.92250923  0.92250923       0.025
   0.05125051  0.94813448  0.94813448       0.025
   0.10250103  0.97375974  0.97375974       0.025
   0.15375154  0.99938499  0.99938499       0.025
   0.20500205  1.02501025  1.02501025       0.025
   0.25625256  1.05063551  1.05063551       0.025
   0.30750308  1.07626076  1.07626076       0.025
   0.35875359  1.10188602  1.10188602       0.025
   0.41000410  1.12751128  1.12751128       0.025
   0.46125461  1.15313653  1.15313653       0.025
   0.69188192  1.38376384  0.69188192       0.025
   0.61500615  1.23001230  0.61500615       0.025
   0.53813038  1.07626076  0.53813038       0.025
   0.46125461  0.92250923  0.46125461       0.025
   0.38437884  0.76875769  0.38437884       0.025
   0.30750308  0.61500615  0.30750308       0.025
   0.23062731  0.46125461  0.23062731       0.025
   0.15375154  0.30750308  0.15375154       0.025
   0.07687577  0.15375154  0.07687577       0.025
   0.00000000  0.00000000  0.00000000       0.025

 k-points in reciprocal lattice and weights: kpoints for bandstructure L-G-X-U K-G
   0.50000000  0.50000000  0.50000000       0.025
   0.44444444  0.44444444  0.44444444       0.025
   0.38888889  0.38888889  0.38888889       0.025
   0.33333333  0.33333333  0.33333333       0.025
   0.27777778  0.27777778  0.27777778       0.025
   0.22222222  0.22222222  0.22222222       0.025
   0.16666667  0.16666667  0.16666667       0.025
   0.11111111  0.11111111  0.11111111       0.025
   0.05555556  0.05555556  0.05555556       0.025
   0.00000000  0.00000000  0.00000000       0.025
   0.00000000  0.00000000  0.00000000       0.025
   0.00000000  0.05555556  0.05555556       0.025
   0.00000000  0.11111111  0.11111111       0.025
   0.00000000  0.16666667  0.16666667       0.025
   0.00000000  0.22222222  0.22222222       0.025
   0.00000000  0.27777778  0.27777778       0.025
   0.00000000  0.33333333  0.33333333       0.025
   0.00000000  0.38888889  0.38888889       0.025
   0.00000000  0.44444444  0.44444444       0.025
   0.00000000  0.50000000  0.50000000       0.025
   0.00000000  0.50000000  0.50000000       0.025
   0.02777778  0.51388889  0.51388889       0.025
   0.05555556  0.52777778  0.52777778       0.025
   0.08333333  0.54166667  0.54166667       0.025
   0.11111111  0.55555556  0.55555556       0.025
   0.13888889  0.56944444  0.56944444       0.025
   0.16666667  0.58333333  0.58333333       0.025
   0.19444444  0.59722222  0.59722222       0.025
   0.22222222  0.61111111  0.61111111       0.025
   0.25000000  0.62500000  0.62500000       0.025
   0.37500000  0.75000000  0.37500000       0.025
   0.33333333  0.66666667  0.33333333       0.025
   0.29166667  0.58333333  0.29166667       0.025
   0.25000000  0.50000000  0.25000000       0.025
   0.20833333  0.41666667  0.20833333       0.025
   0.16666667  0.33333333  0.16666667       0.025
   0.12500000  0.25000000  0.12500000       0.025
   0.08333333  0.16666667  0.08333333       0.025
   0.04166667  0.08333333  0.04166667       0.025
   0.00000000  0.00000000  0.00000000       0.025

 position of ions in fractional coordinates (direct lattice)
   0.00000000  0.00000000  0.00000000
   0.00000000  0.50000000  0.50000000
   0.50000000  0.00000000  0.50000000
   0.50000000  0.50000000  0.00000000
   0.25000000  0.25000000  0.25000000
   0.25000000  0.75000000  0.75000000
   0.75000000  0.25000000  0.75000000
   0.75000000  0.75000000  0.25000000

 position of ions in cartesian coordinates  (Angst):
   0.00000000  0.00000000  0.00000000
   0.00000000  2.71000000  2.71000000
   2.71000000  0.00000000  2.71000000
   2.71000000  2.71000000  0.00000000
   1.35500000  1.35500000  1.35500000
   1.35500000  4.06500000  4.06500000
   4.06500000  1.35500000  4.06500000
   4.06500000  4.06500000  1.35500000

 k-point  1 :  0.50000.50000.5000  plane waves:   1376
 k-point  2 :  0.44440.44440.4444  plane waves:   1352
 k-point  3 :  0.38890.38890.3889  plane waves:   1355
 k-point  4 :  0.33330.33330.3333  plane waves:   1349
 k-point  5 :  0.27780.27780.2778  plane waves:   1337
 k-point  6 :  0.22220.22220.2222  plane waves:   1346
 k-point  7 :  0.16670.16670.1667  plane waves:   1346
 k-point  8 :  0.11110.11110.1111  plane waves:   1334
 k-point  9 :  0.05560.05560.0556  plane waves:   1346
 k-point 10 :  0.00000.00000.0000  plane waves:   1357
 k-point 11 :  0.00000.00000.0000  plane waves:   1357
 k-point 12 :  0.00000.05560.0556  plane waves:   1353
 k-point 13 :  0.00000.11110.1111  plane waves:   1337
 k-point 14 :  0.00000.16670.1667  plane waves:   1332
 k-point 15 :  0.00000.22220.2222  plane waves:   1336
 k-point 16 :  0.00000.27780.2778  plane waves:   1348
 k-point 17 :  0.00000.33330.3333  plane waves:   1336
 k-point 18 :  0.00000.38890.3889  plane waves:   1342
 k-point 19 :  0.00000.44440.4444  plane waves:   1340
 k-point 20 :  0.00000.50000.5000  plane waves:   1356
 k-point 21 :  0.00000.50000.5000  plane waves:   1356
 k-point 22 :  0.02780.51390.5139  plane waves:   1354
 k-point 23 :  0.05560.52780.5278  plane waves:   1350
 k-point 24 :  0.08330.54170.5417  plane waves:   1346
 k-point 25 :  0.11110.55560.5556  plane waves:   1351
 k-point 26 :  0.13890.56940.5694  plane waves:   1351
 k-point 27 :  0.16670.58330.5833  plane waves:   1342
 k-point 28 :  0.19440.59720.5972  plane waves:   1351
 k-point 29 :  0.22220.61110.6111  plane waves:   1348
 k-point 30 :  0.25000.62500.6250  plane waves:   1353
 k-point 31 :  0.37500.75000.3750  plane waves:   1353
 k-point 32 :  0.33330.66670.3333  plane waves:   1349
 k-point 33 :  0.29170.58330.2917  plane waves:   1350
 k-point 34 :  0.25000.50000.2500  plane waves:   1332
 k-point 35 :  0.20830.41670.2083  plane waves:   1344
 k-point 36 :  0.16670.33330.1667  plane waves:   1357
 k-point 37 :  0.12500.25000.1250  plane waves:   1341
 k-point 38 :  0.08330.16670.0833  plane waves:   1333
 k-point 39 :  0.04170.08330.0417  plane waves:   1348
 k-point 40 :  0.00000.00000.0000  plane waves:   1357

 maximum number of plane-waves:   1376
 maximal index in each direction:
   IXMAX=  6   IYMAX=  6   IZMAX=  6
   IXMIN= -7   IYMIN= -7   IZMIN= -7

 WARNING: wrap around error must be expected set NGX to  28
 WARNING: wrap around error must be expected set NGY to  28
 WARNING: wrap around error must be expected set NGZ to  28
Broyden mixing: mesh for mixing (old mesh)
   NGX = 13   NGY = 13   NGZ = 13
  (NGX  = 32   NGY  = 32   NGZ  = 32)
 gives a total of   2197 points
 initial charge density was supplied:
 charge density of overlapping atoms calculated
 number of electron   32.0000000 magnetization
 keeping initial charge density in first step

 Maximum index for augmentation-charges          847 (set IRDMAX)

 First call to EWALD:  gamma=   0.327
 Maximum number of real-space cells 3x 3x 3
 Maximum number of reciprocal cells 3x 3x 3

----------------------------------------- Iteration    1(   1)  ---------------------------------------

 eigenvalue-minimisations  :  1680
 total energy-change (2. order) : 0.4087491E+02  (-0.7746393E+03)
 number of electron   32.0000000 magnetization
 augmentation part    32.0000000 magnetization

 Free energy of the ion-electron system (eV)
  alpha Z        PSCENC =        13.53118846
  Ewald energy   TEWEN  =      -915.94094829
  -1/2 Hartree   DENC   =       -43.67299867
  -V(xc)+E(xc)   XCENC  =       -74.31651317
  PAW double counting   =       263.82083246     -123.07410713
  entropy T*S    EENTRO =        -0.00620271
  eigenvalues    EBANDS =        96.04744613
  atomic energy  EATOM  =       824.48621262
  free energy    TOTEN  =        40.87490971 eV

  energy without entropy =       40.88111242  energy(sigma->0) =       40.87801107

[...]

 eigenvalue-minimisations  :  2305
 total energy-change (2. order) :-0.7891864E+02  (-0.7434647E+02)
 number of electron   32.0000000 magnetization
 augmentation part    32.0000000 magnetization

[...]

 Broyden mixing:
  rms(total) = 0.65362E+00    rms(broyden)= 0.65355E+00
  rms(prec ) = 0.12303E+01
  weight for this iteration     100.00

[...]

 eigenvalues of (default mixing * dielectric matrix)
  average eigenvalue GAMMA=   2.4409
  2.4409

[...]

 eigenvalue-minimisations  :  1864
 total energy-change (2. order) : 0.2836405E+00  (-0.6866294E-01)
 number of electron   32.0000262 magnetization
 augmentation part    -1.7929294 magnetization

[...]

 Broyden mixing:
  rms(total) = 0.82675E-03    rms(broyden)= 0.82651E-03
  rms(prec ) = 0.14786E-02
  weight for this iteration     100.00

 eigenvalues of (default mixing * dielectric matrix)
  average eigenvalue GAMMA=   2.0086
  3.1838  2.5694  2.2091  1.1368  0.9437

[...]

----------------------------------------- Iteration    1(  11)  ---------------------------------------

 eigenvalue-minimisations  :  1190
 total energy-change (2. order) :-0.1861815E-05  (-0.1032957E-05)
 number of electron   32.0000263 magnetization
 augmentation part    -1.7967921 magnetization

 Free energy of the ion-electron system (eV)
  alpha Z        PSCENC =        13.53118846
  Ewald energy   TEWEN  =      -915.94094829
  -1/2 Hartree   DENC   =       -61.60706113
  -V(xc)+E(xc)   XCENC  =       -71.43599570
  PAW double counting   =       302.63081478     -162.89199489
  entropy T*S    EENTRO =        -0.00000062
  eigenvalues    EBANDS =        30.40769813
  atomic energy  EATOM  =       824.48621262
  free energy    TOTEN  =       -40.82008664 eV

  energy without entropy =      -40.82008602  energy(sigma->0) =      -40.82008633

 average (electrostatic) potential at core
  the test charge radii are     0.9892
  (the norm of the test charge is              1.0000)
       1 -83.0597       2 -83.0597       3 -83.0597       4 -83.0597       5 -83.0597
       6 -83.0597       7 -83.0597       8 -83.0597

 E-fermi :   6.3023     XC(G=0):  -9.3914     alpha+bet :-12.0510
   add alpha+bet to get absolut eigen values

 k-point   1 :       0.5000    0.5000    0.5000
  band No.  band energies     occupation
      1      -3.6992      2.00000
      2      -3.6992      2.00000
      3      -3.6992      2.00000
      4      -3.6992      2.00000
      5      -1.0506      2.00000
      6      -1.0506      2.00000
      7      -1.0506      2.00000
      8      -1.0506      2.00000
      9       4.7583      2.00000
     10       4.7583      2.00000
     11       4.7583      2.00000
     12       4.7583      2.00000
     13       4.7583      2.00000
     14       4.7583      2.00000
     15       4.7583      2.00000
     16       4.7583      2.00000
     17       7.5221      0.00000
     18       7.5221      0.00000
     19       7.5221      0.00000
     20       7.5221      0.00000
     21       9.2876      0.00000

[...]

 k-point  40 :       0.0000    0.0000    0.0000
  band No.  band energies     occupation
      1      -6.0521      2.00000
      2      -1.8788      2.00000
      3      -1.8788      2.00000
      4      -1.8788      2.00000
      5      -1.8788      2.00000
      6      -1.8788      2.00000
      7      -1.8788      2.00000
      8       3.0827      2.00000
      9       3.0827      2.00000
     10       3.0827      2.00000
     11       3.0827      2.00000
     12       3.0827      2.00000
     13       3.0827      2.00000
     14       5.9755      2.00000
     15       5.9755      2.00000
     16       5.9755      2.00000
     17       6.6458      0.00000
     18       6.6458      0.00000
     19       6.6458      0.00000
     20       6.6458      0.00000
     21       6.6458      0.00000

 soft charge-density along one line, spin component           1
         0         1         2         3         4         5         6         7         8         9
x    33.7968    0.0000    0.0000    0.0000   -0.9465    0.0000    0.0000    0.0000   -0.0149    0.0000
x     0.0000    0.0000    0.0000
y    33.7968    0.0000    0.0000    0.0000   -0.9465    0.0000    0.0000    0.0000   -0.0149    0.0000
y     0.0000    0.0000    0.0000
z    33.7968    0.0000    0.0000    0.0000   -0.9465    0.0000    0.0000    0.0000   -0.0149    0.0000
z     0.0000    0.0000    0.0000
 total charge-density along one line
x    32.0000    0.0000    0.0000    0.0000   -1.6815    0.0000    0.0000    0.0000   -0.0206    0.0000
x     0.0000    0.0000   -0.0017    0.0000    0.0000    0.0000    0.0004
y    32.0000    0.0000    0.0000    0.0000   -1.6815    0.0000    0.0000    0.0000   -0.0206    0.0000
y     0.0000    0.0000   -0.0017    0.0000    0.0000    0.0000    0.0004
z    32.0000    0.0000    0.0000    0.0000   -1.6815    0.0000    0.0000    0.0000   -0.0206    0.0000
z     0.0000    0.0000   -0.0017    0.0000    0.0000    0.0000    0.0004

------------------------ aborting loop because EDIFF is reached ----------------------------------------

 total charge

# of ion     s       p       d       tot
  1        0.734   0.989   0.000   1.724
  2        0.734   0.989   0.000   1.724
  3        0.734   0.989   0.000   1.724
  4        0.734   0.989   0.000   1.724
  5        0.734   0.989   0.000   1.724
  6        0.734   0.989   0.000   1.724
  7        0.734   0.989   0.000   1.724
  8        0.734   0.989   0.000   1.724
tot        5.874   7.916   0.000  13.790

  FREE ENERGIE OF THE ION-ELECTRON SYSTEM (eV)
  free  energy   TOTEN  =       -40.820087 eV

  energy  without entropy=      -40.820086  energy(sigma->0) =      -40.820086

  FORCE on cell =-STRESS in cart. coord.  units (eV/reduce length):
  Direction    X        Y        Z        XY       YZ       ZX
  Alpha Z     13.53     13.53     13.53
  Ewald     -305.31   -305.31   -305.31      0.00      0.00      0.00
  Hartree     20.53     20.53     20.53      0.00      0.00      0.00
  E(xc)     -102.08   -102.08   -102.08      0.00      0.00      0.00
  Local     -118.48   -118.48   -118.48      0.00      0.00      0.00
  n-local    306.21    312.74    313.23     -0.60     -2.37     -1.43
  augment    -45.61    -45.61    -45.61      0.00      0.00      0.00
  Kinetic    230.02    230.46    232.63     -0.54     -2.76     -2.51
  Total        4.35      4.35      4.35      0.00      0.00      0.00
  in kB       43.75     43.75     43.75      0.00      0.00      0.00

 VOLUME and BASIS-vectors are now :
  energy-cutoff  :      240.00
  volume of cell :      159.22
      direct lattice vectors                 reciprocal lattice vectors
     5.420000000  0.000000000  0.000000000     0.184501845  0.000000000  0.000000000
     0.000000000  5.420000000  0.000000000     0.000000000  0.184501845  0.000000000
     0.000000000  0.000000000  5.420000000     0.000000000  0.000000000  0.184501845

  length of vectors
     5.420000000  5.420000000  5.420000000     0.184501845  0.184501845  0.184501845

 FORCES acting on ions
    electron-ion (+dipol)            ewald-force                    non-local-force                 convergence-correction
   0.260E-13 -.202E-14 0.816E-15   -.688E-14 -.104E-13 -.377E-14   -.397E-16 0.104E-16 -.269E-16   -.699E-15 0.113E-14 -.441E-15
   0.298E-13 -.623E-14 -.824E-15   -.688E-14 -.109E-13 -.311E-14   -.163E-16 0.997E-17 -.434E-17   -.271E-15 -.873E-16 0.332E-15
   0.246E-13 -.184E-14 0.990E-15   -.222E-15 -.104E-13 -.311E-14   -.167E-16 0.911E-17 -.390E-16   -.632E-16 0.646E-15 0.521E-15
   0.213E-13 -.364E-14 0.476E-15   -.222E-15 -.109E-13 -.400E-14   -.293E-16 -.434E-17 -.477E-16   -.578E-15 0.835E-16 -.487E-15
   0.285E-13 -.574E-14 -.832E-14   0.610E-14 0.100E-13 0.374E-14   0.275E-16 0.867E-18 0.416E-16   -.479E-15 -.250E-15 -.140E-14
   0.223E-13 -.587E-14 -.128E-13   0.614E-14 0.111E-13 0.350E-14   0.291E-16 -.607E-17 0.312E-16   -.738E-16 -.120E-14 -.383E-14
   0.311E-13 -.794E-14 -.131E-13   0.105E-14 0.102E-13 0.349E-14   0.230E-16 -.147E-16 0.694E-17   0.377E-15 -.876E-15 -.369E-14
   0.275E-13 -.105E-13 -.128E-13   0.109E-14 0.112E-13 0.371E-14   0.327E-16 -.520E-17 0.312E-16   0.158E-15 -.745E-15 -.117E-14
   0.211E-12 -.438E-13 -.456E-13   0.163E-15 -.810E-16 0.454E-15   0.104E-16 0.000E+00 -.694E-17   -.163E-14 -.130E-14 -.102E-13

 POSITION                                       TOTAL-FORCE (eV/Angst)
      0.00000      0.00000      0.00000         0.000000      0.000000      0.000000
      0.00000      2.71000      2.71000         0.000000      0.000000      0.000000
      2.71000      0.00000      2.71000         0.000000      0.000000      0.000000
      2.71000      2.71000      0.00000         0.000000      0.000000      0.000000
      1.35500      1.35500      1.35500         0.000000      0.000000      0.000000
      1.35500      4.06500      4.06500         0.000000      0.000000      0.000000
      4.06500      1.35500      4.06500         0.000000      0.000000      0.000000
      4.06500      4.06500      1.35500         0.000000      0.000000      0.000000
    total drift:                                0.000000      0.000000      0.000000

 mean value of Nose-termostat <S>:     1.000 mean value of <T> :     0.000
 mean temperature <T/S>/<1/S>  :     0.000

 writing wavefunctions

 total charge

# of ion     s       p       d       tot
  1        0.734   0.989   0.000   1.724
  2        0.734   0.989   0.000   1.724
  3        0.734   0.989   0.000   1.724
  4        0.734   0.989   0.000   1.724
  5        0.734   0.989   0.000   1.724
  6        0.734   0.989   0.000   1.724
  7        0.734   0.989   0.000   1.724
  8        0.734   0.989   0.000   1.724
tot        5.874   7.916   0.000  13.790